p cnf 0 0
c help to minisat to remove posibilities
1 2 0
3 4 0
5 6 0
7 8 0
9 10 0
11 12 0
13 14 0
15 16 0
17 18 0
19 20 0
21 22 0
23 24 0
25 26 0
27 28 0
29 30 0
c proper colo
1 31 32 33 34 0
3 35 36 37 38 0
5 39 40 41 42 0
7 43 44 45 46 0
9 47 48 49 50 0
11 51 52 53 54 0
13 55 56 57 58 0
15 59 60 61 62 0
17 63 64 65 66 0
19 67 68 69 70 0
21 71 72 73 74 0
23 75 76 77 78 0
25 79 80 81 82 0
27 83 84 85 86 0
29 87 88 89 90 0
-31 3 0
-31 11 0
-31 4 12 0
-31 -4 -12 0
31 -3 -11 4 -12 0
31 -3 -11 -4 12 0
-32 5 0
-32 13 0
-32 6 14 0
-32 -6 -14 0
32 -5 -13 6 -14 0
32 -5 -13 -6 14 0
-33 7 0
-33 15 0
-33 8 16 0
-33 -8 -16 0
33 -7 -15 8 -16 0
33 -7 -15 -8 16 0
-34 9 0
-34 17 0
-34 10 18 0
-34 -10 -18 0
34 -9 -17 10 -18 0
34 -9 -17 -10 18 0
-35 1 0
-35 11 0
-35 2 12 0
-35 -2 -12 0
35 -1 -11 2 -12 0
35 -1 -11 -2 12 0
-36 5 0
-36 19 0
-36 6 20 0
-36 -6 -20 0
36 -5 -19 6 -20 0
36 -5 -19 -6 20 0
-37 7 0
-37 21 0
-37 8 22 0
-37 -8 -22 0
37 -7 -21 8 -22 0
37 -7 -21 -8 22 0
-38 9 0
-38 23 0
-38 10 24 0
-38 -10 -24 0
38 -9 -23 10 -24 0
38 -9 -23 -10 24 0
-39 1 0
-39 13 0
-39 2 14 0
-39 -2 -14 0
39 -1 -13 2 -14 0
39 -1 -13 -2 14 0
-40 3 0
-40 19 0
-40 4 20 0
-40 -4 -20 0
40 -3 -19 4 -20 0
40 -3 -19 -4 20 0
-41 7 0
-41 25 0
-41 8 26 0
-41 -8 -26 0
41 -7 -25 8 -26 0
41 -7 -25 -8 26 0
-42 9 0
-42 27 0
-42 10 28 0
-42 -10 -28 0
42 -9 -27 10 -28 0
42 -9 -27 -10 28 0
-43 1 0
-43 15 0
-43 2 16 0
-43 -2 -16 0
43 -1 -15 2 -16 0
43 -1 -15 -2 16 0
-44 3 0
-44 21 0
-44 4 22 0
-44 -4 -22 0
44 -3 -21 4 -22 0
44 -3 -21 -4 22 0
-45 5 0
-45 25 0
-45 6 26 0
-45 -6 -26 0
45 -5 -25 6 -26 0
45 -5 -25 -6 26 0
-46 9 0
-46 29 0
-46 10 30 0
-46 -10 -30 0
46 -9 -29 10 -30 0
46 -9 -29 -10 30 0
-47 1 0
-47 17 0
-47 2 18 0
-47 -2 -18 0
47 -1 -17 2 -18 0
47 -1 -17 -2 18 0
-48 3 0
-48 23 0
-48 4 24 0
-48 -4 -24 0
48 -3 -23 4 -24 0
48 -3 -23 -4 24 0
-49 5 0
-49 27 0
-49 6 28 0
-49 -6 -28 0
49 -5 -27 6 -28 0
49 -5 -27 -6 28 0
-50 7 0
-50 29 0
-50 8 30 0
-50 -8 -30 0
50 -7 -29 8 -30 0
50 -7 -29 -8 30 0
-51 1 0
-51 3 0
-51 2 4 0
-51 -2 -4 0
51 -1 -3 2 -4 0
51 -1 -3 -2 4 0
-52 13 0
-52 19 0
-52 14 20 0
-52 -14 -20 0
52 -13 -19 14 -20 0
52 -13 -19 -14 20 0
-53 15 0
-53 21 0
-53 16 22 0
-53 -16 -22 0
53 -15 -21 16 -22 0
53 -15 -21 -16 22 0
-54 17 0
-54 23 0
-54 18 24 0
-54 -18 -24 0
54 -17 -23 18 -24 0
54 -17 -23 -18 24 0
-55 1 0
-55 5 0
-55 2 6 0
-55 -2 -6 0
55 -1 -5 2 -6 0
55 -1 -5 -2 6 0
-56 11 0
-56 19 0
-56 12 20 0
-56 -12 -20 0
56 -11 -19 12 -20 0
56 -11 -19 -12 20 0
-57 15 0
-57 25 0
-57 16 26 0
-57 -16 -26 0
57 -15 -25 16 -26 0
57 -15 -25 -16 26 0
-58 17 0
-58 27 0
-58 18 28 0
-58 -18 -28 0
58 -17 -27 18 -28 0
58 -17 -27 -18 28 0
-59 1 0
-59 7 0
-59 2 8 0
-59 -2 -8 0
59 -1 -7 2 -8 0
59 -1 -7 -2 8 0
-60 11 0
-60 21 0
-60 12 22 0
-60 -12 -22 0
60 -11 -21 12 -22 0
60 -11 -21 -12 22 0
-61 13 0
-61 25 0
-61 14 26 0
-61 -14 -26 0
61 -13 -25 14 -26 0
61 -13 -25 -14 26 0
-62 17 0
-62 29 0
-62 18 30 0
-62 -18 -30 0
62 -17 -29 18 -30 0
62 -17 -29 -18 30 0
-63 1 0
-63 9 0
-63 2 10 0
-63 -2 -10 0
63 -1 -9 2 -10 0
63 -1 -9 -2 10 0
-64 11 0
-64 23 0
-64 12 24 0
-64 -12 -24 0
64 -11 -23 12 -24 0
64 -11 -23 -12 24 0
-65 13 0
-65 27 0
-65 14 28 0
-65 -14 -28 0
65 -13 -27 14 -28 0
65 -13 -27 -14 28 0
-66 15 0
-66 29 0
-66 16 30 0
-66 -16 -30 0
66 -15 -29 16 -30 0
66 -15 -29 -16 30 0
-67 3 0
-67 5 0
-67 4 6 0
-67 -4 -6 0
67 -3 -5 4 -6 0
67 -3 -5 -4 6 0
-68 11 0
-68 13 0
-68 12 14 0
-68 -12 -14 0
68 -11 -13 12 -14 0
68 -11 -13 -12 14 0
-69 21 0
-69 25 0
-69 22 26 0
-69 -22 -26 0
69 -21 -25 22 -26 0
69 -21 -25 -22 26 0
-70 23 0
-70 27 0
-70 24 28 0
-70 -24 -28 0
70 -23 -27 24 -28 0
70 -23 -27 -24 28 0
-71 3 0
-71 7 0
-71 4 8 0
-71 -4 -8 0
71 -3 -7 4 -8 0
71 -3 -7 -4 8 0
-72 11 0
-72 15 0
-72 12 16 0
-72 -12 -16 0
72 -11 -15 12 -16 0
72 -11 -15 -12 16 0
-73 19 0
-73 25 0
-73 20 26 0
-73 -20 -26 0
73 -19 -25 20 -26 0
73 -19 -25 -20 26 0
-74 23 0
-74 29 0
-74 24 30 0
-74 -24 -30 0
74 -23 -29 24 -30 0
74 -23 -29 -24 30 0
-75 3 0
-75 9 0
-75 4 10 0
-75 -4 -10 0
75 -3 -9 4 -10 0
75 -3 -9 -4 10 0
-76 11 0
-76 17 0
-76 12 18 0
-76 -12 -18 0
76 -11 -17 12 -18 0
76 -11 -17 -12 18 0
-77 19 0
-77 27 0
-77 20 28 0
-77 -20 -28 0
77 -19 -27 20 -28 0
77 -19 -27 -20 28 0
-78 21 0
-78 29 0
-78 22 30 0
-78 -22 -30 0
78 -21 -29 22 -30 0
78 -21 -29 -22 30 0
-79 5 0
-79 7 0
-79 6 8 0
-79 -6 -8 0
79 -5 -7 6 -8 0
79 -5 -7 -6 8 0
-80 13 0
-80 15 0
-80 14 16 0
-80 -14 -16 0
80 -13 -15 14 -16 0
80 -13 -15 -14 16 0
-81 19 0
-81 21 0
-81 20 22 0
-81 -20 -22 0
81 -19 -21 20 -22 0
81 -19 -21 -20 22 0
-82 27 0
-82 29 0
-82 28 30 0
-82 -28 -30 0
82 -27 -29 28 -30 0
82 -27 -29 -28 30 0
-83 5 0
-83 9 0
-83 6 10 0
-83 -6 -10 0
83 -5 -9 6 -10 0
83 -5 -9 -6 10 0
-84 13 0
-84 17 0
-84 14 18 0
-84 -14 -18 0
84 -13 -17 14 -18 0
84 -13 -17 -14 18 0
-85 19 0
-85 23 0
-85 20 24 0
-85 -20 -24 0
85 -19 -23 20 -24 0
85 -19 -23 -20 24 0
-86 25 0
-86 29 0
-86 26 30 0
-86 -26 -30 0
86 -25 -29 26 -30 0
86 -25 -29 -26 30 0
-87 7 0
-87 9 0
-87 8 10 0
-87 -8 -10 0
87 -7 -9 8 -10 0
87 -7 -9 -8 10 0
-88 15 0
-88 17 0
-88 16 18 0
-88 -16 -18 0
88 -15 -17 16 -18 0
88 -15 -17 -16 18 0
-89 21 0
-89 23 0
-89 22 24 0
-89 -22 -24 0
89 -21 -23 22 -24 0
89 -21 -23 -22 24 0
-90 25 0
-90 27 0
-90 26 28 0
-90 -26 -28 0
90 -25 -27 26 -28 0
90 -25 -27 -26 28 0
c Graph as few edges
-91 100 0
-100 91 3 0
-92 101 0
-101 92 3 0
-91 -3 101 0
-101 92 91 0
-93 102 0
-102 93 3 0
-92 -3 102 0
-102 93 92 0
-94 103 0
-103 94 3 0
-93 -3 103 0
-103 94 93 0
-95 104 0
-104 95 3 0
-94 -3 104 0
-104 95 94 0
-96 105 0
-105 96 3 0
-95 -3 105 0
-105 96 95 0
-97 106 0
-106 97 3 0
-96 -3 106 0
-106 97 96 0
-98 107 0
-107 98 3 0
-97 -3 107 0
-107 98 97 0
-99 108 0
-108 99 3 0
-98 -3 108 0
-108 99 98 0
-100 109 0
-109 100 5 0
-101 110 0
-110 101 5 0
-100 -5 110 0
-110 101 100 0
-102 111 0
-111 102 5 0
-101 -5 111 0
-111 102 101 0
-103 112 0
-112 103 5 0
-102 -5 112 0
-112 103 102 0
-104 113 0
-113 104 5 0
-103 -5 113 0
-113 104 103 0
-105 114 0
-114 105 5 0
-104 -5 114 0
-114 105 104 0
-106 115 0
-115 106 5 0
-105 -5 115 0
-115 106 105 0
-107 116 0
-116 107 5 0
-106 -5 116 0
-116 107 106 0
-108 117 0
-117 108 5 0
-107 -5 117 0
-117 108 107 0
-109 118 0
-118 109 7 0
-110 119 0
-119 110 7 0
-109 -7 119 0
-119 110 109 0
-111 120 0
-120 111 7 0
-110 -7 120 0
-120 111 110 0
-112 121 0
-121 112 7 0
-111 -7 121 0
-121 112 111 0
-113 122 0
-122 113 7 0
-112 -7 122 0
-122 113 112 0
-114 123 0
-123 114 7 0
-113 -7 123 0
-123 114 113 0
-115 124 0
-124 115 7 0
-114 -7 124 0
-124 115 114 0
-116 125 0
-125 116 7 0
-115 -7 125 0
-125 116 115 0
-117 126 0
-126 117 7 0
-116 -7 126 0
-126 117 116 0
-118 127 0
-127 118 9 0
-119 128 0
-128 119 9 0
-118 -9 128 0
-128 119 118 0
-120 129 0
-129 120 9 0
-119 -9 129 0
-129 120 119 0
-121 130 0
-130 121 9 0
-120 -9 130 0
-130 121 120 0
-122 131 0
-131 122 9 0
-121 -9 131 0
-131 122 121 0
-123 132 0
-132 123 9 0
-122 -9 132 0
-132 123 122 0
-124 133 0
-133 124 9 0
-123 -9 133 0
-133 124 123 0
-125 134 0
-134 125 9 0
-124 -9 134 0
-134 125 124 0
-126 135 0
-135 126 9 0
-125 -9 135 0
-135 126 125 0
-127 136 0
-136 127 11 0
-128 137 0
-137 128 11 0
-127 -11 137 0
-137 128 127 0
-129 138 0
-138 129 11 0
-128 -11 138 0
-138 129 128 0
-130 139 0
-139 130 11 0
-129 -11 139 0
-139 130 129 0
-131 140 0
-140 131 11 0
-130 -11 140 0
-140 131 130 0
-132 141 0
-141 132 11 0
-131 -11 141 0
-141 132 131 0
-133 142 0
-142 133 11 0
-132 -11 142 0
-142 133 132 0
-134 143 0
-143 134 11 0
-133 -11 143 0
-143 134 133 0
-135 144 0
-144 135 11 0
-134 -11 144 0
-144 135 134 0
-136 145 0
-145 136 13 0
-137 146 0
-146 137 13 0
-136 -13 146 0
-146 137 136 0
-138 147 0
-147 138 13 0
-137 -13 147 0
-147 138 137 0
-139 148 0
-148 139 13 0
-138 -13 148 0
-148 139 138 0
-140 149 0
-149 140 13 0
-139 -13 149 0
-149 140 139 0
-141 150 0
-150 141 13 0
-140 -13 150 0
-150 141 140 0
-142 151 0
-151 142 13 0
-141 -13 151 0
-151 142 141 0
-143 152 0
-152 143 13 0
-142 -13 152 0
-152 143 142 0
-144 153 0
-153 144 13 0
-143 -13 153 0
-153 144 143 0
-145 154 0
-154 145 15 0
-146 155 0
-155 146 15 0
-145 -15 155 0
-155 146 145 0
-147 156 0
-156 147 15 0
-146 -15 156 0
-156 147 146 0
-148 157 0
-157 148 15 0
-147 -15 157 0
-157 148 147 0
-149 158 0
-158 149 15 0
-148 -15 158 0
-158 149 148 0
-150 159 0
-159 150 15 0
-149 -15 159 0
-159 150 149 0
-151 160 0
-160 151 15 0
-150 -15 160 0
-160 151 150 0
-152 161 0
-161 152 15 0
-151 -15 161 0
-161 152 151 0
-153 162 0
-162 153 15 0
-152 -15 162 0
-162 153 152 0
-154 163 0
-163 154 17 0
-155 164 0
-164 155 17 0
-154 -17 164 0
-164 155 154 0
-156 165 0
-165 156 17 0
-155 -17 165 0
-165 156 155 0
-157 166 0
-166 157 17 0
-156 -17 166 0
-166 157 156 0
-158 167 0
-167 158 17 0
-157 -17 167 0
-167 158 157 0
-159 168 0
-168 159 17 0
-158 -17 168 0
-168 159 158 0
-160 169 0
-169 160 17 0
-159 -17 169 0
-169 160 159 0
-161 170 0
-170 161 17 0
-160 -17 170 0
-170 161 160 0
-162 171 0
-171 162 17 0
-161 -17 171 0
-171 162 161 0
-163 172 0
-172 163 19 0
-164 173 0
-173 164 19 0
-163 -19 173 0
-173 164 163 0
-165 174 0
-174 165 19 0
-164 -19 174 0
-174 165 164 0
-166 175 0
-175 166 19 0
-165 -19 175 0
-175 166 165 0
-167 176 0
-176 167 19 0
-166 -19 176 0
-176 167 166 0
-168 177 0
-177 168 19 0
-167 -19 177 0
-177 168 167 0
-169 178 0
-178 169 19 0
-168 -19 178 0
-178 169 168 0
-170 179 0
-179 170 19 0
-169 -19 179 0
-179 170 169 0
-171 180 0
-180 171 19 0
-170 -19 180 0
-180 171 170 0
-172 181 0
-181 172 21 0
-173 182 0
-182 173 21 0
-172 -21 182 0
-182 173 172 0
-174 183 0
-183 174 21 0
-173 -21 183 0
-183 174 173 0
-175 184 0
-184 175 21 0
-174 -21 184 0
-184 175 174 0
-176 185 0
-185 176 21 0
-175 -21 185 0
-185 176 175 0
-177 186 0
-186 177 21 0
-176 -21 186 0
-186 177 176 0
-178 187 0
-187 178 21 0
-177 -21 187 0
-187 178 177 0
-179 188 0
-188 179 21 0
-178 -21 188 0
-188 179 178 0
-180 189 0
-189 180 21 0
-179 -21 189 0
-189 180 179 0
-181 190 0
-190 181 23 0
-182 191 0
-191 182 23 0
-181 -23 191 0
-191 182 181 0
-183 192 0
-192 183 23 0
-182 -23 192 0
-192 183 182 0
-184 193 0
-193 184 23 0
-183 -23 193 0
-193 184 183 0
-185 194 0
-194 185 23 0
-184 -23 194 0
-194 185 184 0
-186 195 0
-195 186 23 0
-185 -23 195 0
-195 186 185 0
-187 196 0
-196 187 23 0
-186 -23 196 0
-196 187 186 0
-188 197 0
-197 188 23 0
-187 -23 197 0
-197 188 187 0
-189 198 0
-198 189 23 0
-188 -23 198 0
-198 189 188 0
-190 199 0
-199 190 25 0
-191 200 0
-200 191 25 0
-190 -25 200 0
-200 191 190 0
-192 201 0
-201 192 25 0
-191 -25 201 0
-201 192 191 0
-193 202 0
-202 193 25 0
-192 -25 202 0
-202 193 192 0
-194 203 0
-203 194 25 0
-193 -25 203 0
-203 194 193 0
-195 204 0
-204 195 25 0
-194 -25 204 0
-204 195 194 0
-196 205 0
-205 196 25 0
-195 -25 205 0
-205 196 195 0
-197 206 0
-206 197 25 0
-196 -25 206 0
-206 197 196 0
-198 207 0
-207 198 25 0
-197 -25 207 0
-207 198 197 0
-199 208 0
-208 199 27 0
-200 209 0
-209 200 27 0
-199 -27 209 0
-209 200 199 0
-201 210 0
-210 201 27 0
-200 -27 210 0
-210 201 200 0
-202 211 0
-211 202 27 0
-201 -27 211 0
-211 202 201 0
-203 212 0
-212 203 27 0
-202 -27 212 0
-212 203 202 0
-204 213 0
-213 204 27 0
-203 -27 213 0
-213 204 203 0
-205 214 0
-214 205 27 0
-204 -27 214 0
-214 205 204 0
-206 215 0
-215 206 27 0
-205 -27 215 0
-215 206 205 0
-207 216 0
-216 207 27 0
-206 -27 216 0
-216 207 206 0
-208 217 0
-217 208 29 0
-209 218 0
-218 209 29 0
-208 -29 218 0
-218 209 208 0
-210 219 0
-219 210 29 0
-209 -29 219 0
-219 210 209 0
-211 220 0
-220 211 29 0
-210 -29 220 0
-220 211 210 0
-212 221 0
-221 212 29 0
-211 -29 221 0
-221 212 211 0
-213 222 0
-222 213 29 0
-212 -29 222 0
-222 213 212 0
-214 223 0
-223 214 29 0
-213 -29 223 0
-223 214 213 0
-215 224 0
-224 215 29 0
-214 -29 224 0
-224 215 214 0
-216 225 0
-225 216 29 0
-215 -29 225 0
-225 216 215 0
91 0
-99 0
-108 0
-117 0
-126 0
-135 0
-144 0
-153 0
-162 0
-171 0
-180 0
-189 0
-198 0
-207 0
-216 0
-225 0
224 0
c Variable for even degree
-225 -1 0
225 1 0
-226 -1 -225 0
-226 1 225 0
226 1 -225 0
226 -1 225 0
-227 -3 -226 0
-227 3 226 0
227 3 -226 0
227 -3 226 0
-228 -5 -227 0
-228 5 227 0
228 5 -227 0
228 -5 227 0
-229 -7 -228 0
-229 7 228 0
229 7 -228 0
229 -7 228 0
-230 -9 -229 0
-230 9 229 0
230 9 -229 0
230 -9 229 0
-231 1 0
231 -1 0
-232 -11 -231 0
-232 11 231 0
232 11 -231 0
232 -11 231 0
-233 -13 -232 0
-233 13 232 0
233 13 -232 0
233 -13 232 0
-234 -15 -233 0
-234 15 233 0
234 15 -233 0
234 -15 233 0
-235 -17 -234 0
-235 17 234 0
235 17 -234 0
235 -17 234 0
-236 3 0
236 -3 0
-237 -11 -236 0
-237 11 236 0
237 11 -236 0
237 -11 236 0
-238 -19 -237 0
-238 19 237 0
238 19 -237 0
238 -19 237 0
-239 -21 -238 0
-239 21 238 0
239 21 -238 0
239 -21 238 0
-240 -23 -239 0
-240 23 239 0
240 23 -239 0
240 -23 239 0
-241 5 0
241 -5 0
-242 -13 -241 0
-242 13 241 0
242 13 -241 0
242 -13 241 0
-243 -19 -242 0
-243 19 242 0
243 19 -242 0
243 -19 242 0
-244 -25 -243 0
-244 25 243 0
244 25 -243 0
244 -25 243 0
-245 -27 -244 0
-245 27 244 0
245 27 -244 0
245 -27 244 0
-246 7 0
246 -7 0
-247 -15 -246 0
-247 15 246 0
247 15 -246 0
247 -15 246 0
-248 -21 -247 0
-248 21 247 0
248 21 -247 0
248 -21 247 0
-249 -25 -248 0
-249 25 248 0
249 25 -248 0
249 -25 248 0
-250 -29 -249 0
-250 29 249 0
250 29 -249 0
250 -29 249 0
-251 9 0
251 -9 0
-252 -17 -251 0
-252 17 251 0
252 17 -251 0
252 -17 251 0
-253 -23 -252 0
-253 23 252 0
253 23 -252 0
253 -23 252 0
-254 -27 -253 0
-254 27 253 0
254 27 -253 0
254 -27 253 0
-255 -29 -254 0
-255 29 254 0
255 29 -254 0
255 -29 254 0
-230 -235 -240 0
-230 -235 -245 0
-230 -235 -250 0
-230 -235 -255 0
-230 -240 -245 0
-230 -240 -250 0
-230 -240 -255 0
-230 -245 -250 0
-230 -245 -255 0
-230 -250 -255 0
-235 -240 -245 0
-235 -240 -250 0
-235 -240 -255 0
-235 -245 -250 0
-235 -245 -255 0
-235 -250 -255 0
-240 -245 -250 0
-240 -245 -255 0
-240 -250 -255 0
-245 -250 -255 0
